SCIP Status        : solving was interrupted [time limit reached]
Total Time         :    3600.01
  solving          :    3600.00
  presolving       :       0.47 (included in solving)
  reading          :       0.01
  copying          :       1.87 (82 #copies) (minimal 0.00, maximal 0.05, average 0.02)
Original Problem   :
  Problem name     : bbbenchmark/pw09_100.1.cut
  Variables        : 101 (100 binary, 0 integer, 0 implicit integer, 1 continuous)
  Constraints      : 1 initial, 1 maximal
  Objective        : minimize, 1 non-zeros (abs.min = 1, abs.max = 1)
Presolved Problem  :
  Problem name     : t_bbbenchmark/pw09_100.1.cut
  Variables        : 1290 (100 binary, 0 integer, 1140 implicit integer, 50 continuous)
  Constraints      : 1288 initial, 7163 maximal
  Objective        : minimize, 1 non-zeros (abs.min = 1, abs.max = 1)
  Nonzeros         : 11585 constraint, 202 clique table
Presolvers         :   ExecTime  SetupTime  Calls  FixedVars   AggrVars   ChgTypes  ChgBounds   AddHoles    DelCons    AddCons   ChgSides   ChgCoefs
  boundshift       :       0.00       0.00      0          0          0          0          0          0          0          0          0          0
  convertinttobin  :       0.00       0.00      0          0          0          0          0          0          0          0          0          0
  domcol           :       0.00       0.00      1          0          0          0          0          0          0          0          0          0
  dualagg          :       0.00       0.00      0          0          0          0          0          0          0          0          0          0
  dualcomp         :       0.00       0.00      1          0          0          0          0          0          0          0          0          0
  dualinfer        :       0.00       0.00      0          0          0          0          0          0          0          0          0          0
  dualsparsify     :       0.00       0.00      1          0          0          0          0          0          0          0          0          0
  gateextraction   :       0.00       0.00      0          0          0          0          0          0          0          0          0          0
  implics          :       0.00       0.00      2          0          0          0          0          0          0          0          0          0
  inttobinary      :       0.00       0.00      0          0          0          0          0          0          0          0          0          0
  qpkktref         :       0.00       0.00      0          0          0          0          0          0          0          0          0          0
  redvub           :       0.00       0.00      0          0          0          0          0          0          0          0          0          0
  sparsify         :       0.00       0.00      1          0          0          0          0          0          0          0          0          0
  stuffing         :       0.00       0.00      0          0          0          0          0          0          0          0          0          0
  trivial          :       0.00       0.00      4          0          0          0          0          0          0          0          0          0
  tworowbnd        :       0.00       0.00      0          0          0          0          0          0          0          0          0          0
  dualfix          :       0.00       0.00      4          0          0          0          0          0          0          0          0          0
  genvbounds       :       0.00       0.00      0          0          0          0          0          0          0          0          0          0
  probing          :       0.24       0.00      1          0          0          0          0          0          0          0          0          0
  pseudoobj        :       0.00       0.00      1          0          0          0          1          0          0          0          0          0
  symmetry         :       0.00       0.00      0          0          0          0          0          0          0          0          0          0
  vbounds          :       0.00       0.00      1          0          0          0          0          0          0          0          0          0
  varbound         :       0.00       0.00      2          0          0          0          0          0          0          0          0          0
  and              :       0.00       0.01      2          0          0          0          0          0          0          0          0          0
  linear           :       0.02       0.00      2          0          0          0          0          0          0          0          0          0
  logicor          :       0.00       0.00      0          0          0          0          0          0          0          0          0          0
  bounddisjunction :       0.00       0.00      0          0          0          0          0          0          0          0          0          0
  nonlinear        :       0.19       0.01      5          0          0          0          1          0          0       1287          0          0
  benders          :       0.00       0.00      0          0          0          0          0          0          0          0          0          0
  components       :       0.00       0.00      1          0          0          0          0          0          0          0          0          0
  root node        :          -          -      -          0          -          -          8          -          -          -          -          -
Constraints        :     Number  MaxNumber  #Separate #Propagate    #EnfoLP    #EnfoRelax  #EnfoPS    #Check   #ResProp    Cutoffs    DomReds       Cuts    Applied      Conss   Children
  benderslp        :          0          0          0          0     435681          0          0      62022          0          0          0          0          0          0          0
  integral         :          0          0          0          0     435681          0          0      62022          0          0         29          0          0          0     871292
  varbound         :         49         49         21    2059033          0          0          0       2431          1          0     284160          0          0          0          0
  and              :       1140       1140     518549    2072342          9          0          0       2431     139518          0    1277382        203        156          0          0
  linear           :         99+       110         21    2072455          9          0          0       2429      20717        508   11973468          0          0          0          0
  logicor          :          0+      2031          0     150702          0          0          0          0          2        171          6          0          0          0          0
  bounddisjunction :          0+      3844          0     220891          0          0          0          0         23         97          1          0          0          0          0
  benders          :          0          0          0          0          9          0          0         16          0          0          0          0          0          0          0
  countsols        :          0          0          0          0          9          0          0         16          0          0          0          0          0          0          0
  components       :          0          0          0          0          0          0          0          0          0          0          0          0          0          0          0
Constraint Timings :  TotalTime  SetupTime   Separate  Propagate     EnfoLP     EnfoPS     EnfoRelax   Check    ResProp    SB-Prop
  benderslp        :       0.55       0.00       0.00       0.00       0.47       0.00       0.00       0.08       0.00       0.00
  integral         :      98.80       0.00       0.00       0.00      98.62       0.00       0.00       0.18       0.00       0.00
  varbound         :       5.00       0.00       0.00       4.99       0.00       0.00       0.00       0.01       0.00       0.00
  and              :     192.29       0.01     147.25      43.89       0.00       0.00       0.00       0.55       0.04       0.55
  linear           :      73.73       0.00       0.02      73.39       0.00       0.00       0.00       0.01       0.08       0.23
  logicor          :       7.25       0.00       0.00       7.25       0.00       0.00       0.00       0.00       0.00       0.00
  bounddisjunction :      15.64       0.00       0.00      15.64       0.00       0.00       0.00       0.00       0.00       0.00
  benders          :       0.00       0.00       0.00       0.00       0.00       0.00       0.00       0.00       0.00       0.00
  countsols        :       0.00       0.00       0.00       0.00       0.00       0.00       0.00       0.00       0.00       0.00
  components       :       0.60       0.00       0.00       0.60       0.00       0.00       0.00       0.00       0.00       0.00
Propagators        : #Propagate   #ResProp    Cutoffs    DomReds
  dualfix          :          2          0          0          0
  genvbounds       :          0          0          0          0
  nlobbt           :          0          0          0          0
  obbt             :          0          0          0          0
  probing          :          0          0          0          0
  pseudoobj        :    2133604         17          0       8722
  redcost          :     998927          0          0     288869
  rootredcost      :         14          0          0          0
  symmetry         :          0          0          0          0
  vbounds          :     360552          0          0          0
Propagator Timings :  TotalTime  SetupTime   Presolve  Propagate    ResProp    SB-Prop
  dualfix          :       0.00       0.00       0.00       0.00       0.00       0.00
  genvbounds       :       1.49       0.00       0.00       1.49       0.00       0.00
  nlobbt           :       0.00       0.00       0.00       0.00       0.00       0.00
  obbt             :       0.00       0.00       0.00       0.00       0.00       0.00
  probing          :       0.24       0.00       0.24       0.00       0.00       0.00
  pseudoobj        :       3.36       0.00       0.00       3.36       0.00       0.00
  redcost          :      49.15       0.00       0.00      49.15       0.00       0.00
  rootredcost      :       2.46       0.00       0.00       2.44       0.00       0.02
  symmetry         :       1.16       0.00       0.00       1.16       0.00       0.00
  vbounds          :       2.16       0.00       0.00       2.15       0.00       0.01
Conflict Analysis  :       Time      Calls    Success    DomReds  Conflicts   Literals    Reconvs ReconvLits   Dualrays   Nonzeros   LP Iters   (pool size: [10000,10000])
  propagation      :       0.00        268        201          -        335       76.5          0        0.0          -          -          -
  infeasible LP    :       0.89        524        524          -      18929      139.2          0        0.0        662      153.0          0
  bound exceed. LP :      10.96       3145       3028          -      36643      100.3          0        0.0          0        0.0      42761
  strong branching :       0.00          0          0          -          0        0.0          0        0.0          -          -          0
  pseudo solution  :       0.00          0          0          -          0        0.0          0        0.0          -          -          -
  applied globally :       0.23          -          -          0      12104       95.6          -          -        662          -          -
  applied locally  :          -          -          -          0          0        0.0          -          -          0          -          -
Separators         :   ExecTime  SetupTime      Calls  RootCalls    Cutoffs    DomReds  FoundCuts ViaPoolAdd  DirectAdd    Applied ViaPoolApp  DirectApp      Conss
  cut pool         :       7.28          -      73800         43          -          -      27114    1677083          -          -          -          -          -    (maximal pool size:       1762)
  aggregation      :      32.61       0.00       5004         21          0          0        355     112475          0      66794      66794          0          0
  > cmir           :          -          -          -          -          -          -          -     112475          0      66794      66794          0          -
  > flowcover      :          -          -          -          -          -          -          -          0          0          0          0          0          -
  > knapsackcover  :          -          -          -          -          -          -          -          0          0          0          0          0          -
  cgmip            :       0.00       0.00          0          0          0          0          0          0          0          0          0          0          0
  clique           :       0.00       0.00         21         21          0          0          0          0          0          0          0          0          0
  closecuts        :       0.00       0.00          0          0          0          0          0          0          0          0          0          0          0
  convexproj       :       0.00       0.00          0          0          0          0          0          0          0          0          0          0          0
  disjunctive      :       0.00       0.00          0          0          0          0          0          0          0          0          0          0          0
  eccuts           :       0.00       0.00          0          0          0          0          0          0          0          0          0          0          0
  gauge            :       0.00       0.00          0          0          0          0          0          0          0          0          0          0          0
  gomory           :       0.00       0.00          0          0          0          0          0          0          0          0          0          0          0
  > gomorymi       :          -          -          -          -          -          -          -          0          0          0          0          0          -
  > strongcg       :          -          -          -          -          -          -          -          0          0          0          0          0          -
  impliedbounds    :       0.32       0.00       5004         21          0          0          0          0          0          0          0          0          0
  interlattice     :       0.00       0.00          0          0          0          0          0          0          0          0          0          0          0
  interminor       :       0.00       0.00          0          0          0          0          0          0          0          0          0          0          0
  intersub         :       0.00       0.00          0          0          0          0          0          0          0          0          0          0          0
  intobj           :       0.00       0.00          0          0          0          0          0          0          0          0          0          0          0
  mcf              :       0.00       0.00          1          1          0          0          0          0          0          0          0          0          0
  minor            :       0.00       0.00          0          0          0          0          0          0          0          0          0          0          0
  mixing           :       0.04       0.00       5004         21          0          0          0          0          0          0          0          0          0
  oddcycle         :       0.00       0.00          0          0          0          0          0          0          0          0          0          0          0
  rapidlearning    :       0.09       0.00          0          0          0          0          0          0          0          0          0          0          0
  rlt              :       0.00       0.00         10         10          0          0          0          0          0          0          0          0          0
  zerohalf         :      25.25       0.00       4063         20          0          0      26759    1564608          0     355774     355774          0          0
Cutselectors       :   ExecTime  SetupTime      Calls  RootCalls   Selected     Forced   Filtered  RootSelec   RootForc   RootFilt 
  hybrid           :       1.68       0.00      53990         20     422724          0    1254562        118          0          7
Pricers            :   ExecTime  SetupTime      Calls       Vars
  problem variables:       0.00          -          0          0
Branching Rules    :   ExecTime  SetupTime   BranchLP  BranchExt   BranchPS    Cutoffs    DomReds       Cuts      Conss   Children
  allfullstrong    :       0.00       0.00          0          0          0          0          0          0          0          0
  cloud            :       0.00       0.00          0          0          0          0          0          0          0          0
  distribution     :       0.00       0.00          0          0          0          0          0          0          0          0
  fullstrong       :       0.00       0.00          0          0          0          0          0          0          0          0
  inference        :       0.00       0.00          0          0          0          0          0          0          0          0
  leastinf         :       0.00       0.00          0          0          0          0          0          0          0          0
  lookahead        :       0.00       0.00          0          0          0          0          0          0          0          0
  mostinf          :       0.00       0.00          0          0          0          0          0          0          0          0
  multaggr         :       0.00       0.00          0          0          0          0          0          0          0          0
  nodereopt        :       0.00       0.00          0          0          0          0          0          0          0          0
  pscost           :       0.00       0.00          0          0          0          0          0          0          0          0
  random           :       0.00       0.00          0          0          0          0          0          0          0          0
  relpscost        :      97.02       0.00     435672          0          0          0         29          0          0     871292
  vanillafullstrong:       0.00       0.00          0          0          0          0          0          0          0          0
Primal Heuristics  :   ExecTime  SetupTime      Calls      Found       Best
  LP solutions     :       0.00          -          -          9          9
  relax solutions  :       0.00          -          -          0          0
  pseudo solutions :       0.00          -          -          0          0
  strong branching :       0.01          -          -          0          0
  actconsdiving    :       0.00       0.00          0          0          0
  adaptivediving   :       2.21       0.00         32          0          0
  alns             :       2.29       0.00         24          0          0
  bound            :       0.00       0.00          0          0          0
  clique           :       0.01       0.00          1          0          0
  coefdiving       :       0.00       0.00          0          0          0
  completesol      :       0.00       0.00          0          0          0
  conflictdiving   :     111.74       0.00        677          0          0
  crossover        :       2.13       0.00         11          0          0
  dins             :       0.00       0.00          0          0          0
  distributiondivin:      66.11       0.00        327          0          0
  dps              :       0.00       0.00          0          0          0
  dualval          :       0.00       0.00          0          0          0
  farkasdiving     :       0.05       0.00          0          0          0
  feaspump         :       0.14       0.00          2          1          0
  fixandinfer      :       0.00       0.00          0          0          0
  fracdiving       :      37.87       0.00        330          0          0
  gins             :       0.67       0.00          0          0          0
  guideddiving     :      36.49       0.00        325          0          0
  indicator        :       0.40       0.00          0          0          0
  indicatordiving  :       0.00       0.00          0          0          0
  intdiving        :       0.00       0.00          0          0          0
  intshifting      :       0.33       0.00         84          0          0
  linesearchdiving :      32.72       0.00        415          2          2
  localbranching   :       0.00       0.00          0          0          0
  locks            :       0.01       0.00          1          0          0
  lpface           :       0.74       0.00          0          0          0
  mpec             :      36.43       0.00          7          0          0
  multistart       :       0.00       0.00          0          0          0
  mutation         :       0.00       0.00          0          0          0
  nlpdiving        :      12.43       0.00          1          0          0
  objpscostdiving  :      17.81       0.00         39          2          0
  octane           :       0.00       0.00          0          0          0
  ofins            :       0.52       0.00          0          0          0
  oneopt           :       0.51       0.00         16          0          0
  padm             :       0.00       0.00          0          0          0
  proximity        :       0.00       0.00          0          0          0
  pscostdiving     :      38.32       0.00        237          2          2
  randrounding     :       3.14       0.00      62011          0          0
  rens             :       0.00       0.00          0          0          0
  reoptsols        :       0.00       0.00          0          0          0
  repair           :       0.00       0.00          0          0          0
  rins             :       4.28       0.00         46          0          0
  rootsoldiving    :      12.98       0.00        141          2          0
  rounding         :       2.77       0.00       9687          0          0
  shiftandpropagate:       0.00       0.00          0          0          0
  shifting         :      38.51       0.00      10918          1          1
  simplerounding   :       0.54       0.00          0          0          0
  subnlp           :     538.86       0.00          0          0          0
  trivial          :       0.02       0.00          2          2          2
  trivialnegation  :       0.00       0.00          0          0          0
  trustregion      :       0.00       0.00          0          0          0
  trysol           :       0.75       0.00          0          0          0
  twoopt           :       0.00       0.00          0          0          0
  undercover       :       4.96       0.00          1          1          1
  vbounds          :       0.00       0.00          0          0          0
  veclendiving     :      33.23       0.00        556          0          0
  zeroobj          :       0.00       0.00          0          0          0
  zirounding       :       0.71       0.00       1000          0          0
  other solutions  :          -          -          -          0          -
Diving (single)    :      Calls      Nodes   LP Iters Backtracks  Conflicts   MinDepth   MaxDepth   AvgDepth  RoundSols  NLeafSols  MinSolDpt  MaxSolDpt  AvgSolDpt
  actconsdiving    :          0          -          -          -          -          -          -          -          -          -          -          -          -
  coefdiving       :          0          -          -          -          -          -          -          -          -          -          -          -          -
  conflictdiving   :        677      33475    1013653        655      12734         64         86       76.7          0          -          -          -          -
  distributiondivin:        327      17038     344756        391       6020         58         94       79.0          0          -          -          -          -
  farkasdiving     :          0          -          -          -          -          -          -          -          -          -          -          -          -
  fracdiving       :        330      40840     344211         84        682         78        321      150.1          0          -          -          -          -
  guideddiving     :        325      35466     344008         21       1081         65        229      135.0          0          -          -          -          -
  indicatordiving  :          0          -          -          -          -          -          -          -          -          -          -          -          -
  linesearchdiving :        415      23212     357500         40       9322         70        104       83.1          0          2         78         81       79.5
  pscostdiving     :        237      12471     375752        258       3680         73         93       80.0          0          2         82         86       84.0
  veclendiving     :        556      28477     340266        471      22174         64         93       77.0          0          -          -          -          -
Diving (adaptive)  :      Calls      Nodes   LP Iters Backtracks  Conflicts   MinDepth   MaxDepth   AvgDepth  RoundSols  NLeafSols  MinSolDpt  MaxSolDpt  AvgSolDpt
  actconsdiving    :          1         27         33          2          8         73         73       73.0          0          -          -          -          -
  coefdiving       :          6        343       3146          5        284         75         94       80.2          0          -          -          -          -
  conflictdiving   :          0          -          -          -          -          -          -          -          -          -          -          -          -
  distributiondivin:          0          -          -          -          -          -          -          -          -          -          -          -          -
  farkasdiving     :          0          -          -          -          -          -          -          -          -          -          -          -          -
  fracdiving       :          0          -          -          -          -          -          -          -          -          -          -          -          -
  guideddiving     :          3        361       3416          0          0        117        164      142.0          0          -          -          -          -
  indicatordiving  :          0          -          -          -          -          -          -          -          -          -          -          -          -
  linesearchdiving :         17        891      12162          0        304         65         95       82.2          0          -          -          -          -
  pscostdiving     :          1         57       1144          1          6         84         84       84.0          0          -          -          -          -
  veclendiving     :          4        220       2694          3        172         70         85       76.2          0          -          -          -          -
Neighborhoods      :      Calls  SetupTime  SolveTime SolveNodes       Sols       Best       Exp3  EpsGreedy        UCB TgtFixRate  Opt  Inf Node Stal  Sol  Usr Othr Actv
  rens             :          5       0.21       0.16        134          0          0    0.00000   -1.00000    0.46759      0.716    0    3    0    2    0    0    0    1
  rins             :          3       0.08       0.11        158          0          0    0.00000   -1.00000    0.47187      0.863    0    1    0    2    0    0    0    1
  mutation         :          2       0.03       0.12         91          0          0    0.00000   -1.00000    0.46700      0.850    0    1    0    1    0    0    0    1
  localbranching   :          5       0.19       0.15        240          0          0    0.00000   -1.00000    0.46638      0.841    0    2    0    3    0    0    0    1
  crossover        :          3       0.11       0.11         55          0          0    0.00000   -1.00000    0.49081      0.737    0    2    0    1    0    0    0    1
  proximity        :          2       0.05       0.20         64          0          0    0.00000   -1.00000    0.47325      0.850    0    1    0    1    0    0    0    1
  zeroobjective    :          2       0.05       0.04         59          0          0    0.00000   -1.00000    0.47425      0.850    0    1    0    1    0    0    0    1
  dins             :          2       0.04       0.11         73          0          0    0.00000   -1.00000    0.47025      0.850    0    1    0    1    0    0    0    1
  trustregion      :          0       0.00       0.00          0          0          0    0.00000   -1.00000    1.00000      0.900    0    0    0    0    0    0    0    0
Expressions        :   #IntEval  IntEvalTi   #RevProp  RevPropTi    DomReds    Cutoffs  #Estimate  EstimTime  Branching  #Simplify SimplifyTi Simplified
  pow              :          0       0.00          0       0.00          0          0          0       0.00          0          0       0.00          0
  prod             :      17820       0.00          0       0.00          0          0          0       0.00          0      10050       0.02          0
  sum              :          8       0.00          2       0.00          0          0          0       0.00          0          3       0.03          2
  var              :       4679       0.00          0       0.00          0          0          0       0.00          0      21592       0.01          0
  varidx           :          0       0.00          0       0.00          0          0          0       0.00          0          0       0.00          0
LP                 :       Time      Calls Iterations  Iter/call   Iter/sec  Time-0-It Calls-0-It    ItLimit
  primal LP        :      73.03      24422          0       0.00       0.00      72.94      24422
  dual LP          :    1296.28     831700    6650393       8.77    5130.37      25.00      73625
  lex dual LP      :       0.00          0          0       0.00          -
  barrier LP       :       0.00          0          0       0.00          -       0.00          0
  resolve instable :       0.00          0          0       0.00          -
  diving/probing LP:     301.59      18628    3359515     180.35   11139.34
  strong branching :      10.13       1683      90440      53.74    8927.94          -          -       2009
    (at root node) :          -         19       2186     115.05          -
  conflict analysis:       5.65       4697      42761       9.10    7568.32
NLP relaxation     :
  solve time       :      12.03 (9 calls)
  convexity        :  nonconvex (148 linear rows, 0 convex ineq., 0 nonconvex ineq., 1140 nonlinear eq. or two-sided ineq.)
NLP Solvers        :  #Problems  ProblemTi    #Solves  SolveTime      #Iter  Time/Iter      #Okay #TimeLimit #IterLimit #LObjLimit #Interrupt  #NumError #EvalError  #OutOfMem #LicenseEr #OtherTerm   #GlobOpt    #LocOpt  #Feasible #LocInfeas #GlobInfea #Unbounded   #Unknown
  ipopt            :          8      23.20         32      81.97       1159       0.07         30          0          2          0          0          0          0          0          0          0          0         18          0         12          0          0          2
B&B Tree           :
  number of runs   :          1
  nodes            :     704103 (435646 internal, 268457 leaves)
  feasible leaves  :          9
  infeas. leaves   :         19
  objective leaves :     268428
  nodes (total)    :     704103 (435646 internal, 268457 leaves)
  nodes left       :     167060
  max depth        :         81
  max depth (total):         81
  backtracks       :     152232 (21.6%)
  early backtracks :          0 (0.0%)
  nodes exc. ref.  :          0 (0.0%)
  delayed cutoffs  :          3
  repropagations   :         39 (589 domain reductions, 0 cutoffs)
  avg switch length:       7.45
  switching time   :     254.42
Estim. Tree Size   :    1408466
Estimation Tree    : 871293 nodes (704233 visited, 435646 internal, 268587 leaves, 167060 open), weight: 0.0000 completed 0.0452
Estimations        :      estim      value      trend resolution     smooth
  wbe              :         in          -          -          -          -
  tree-profile     :         -1          -          -          -          -
  gap              :   37089069    0.61059    0.00001        512   37123517
  tree-weight      :    1408466    0.00000    0.00000        512    1406014
  leaf-frequency   :    1408466    0.38139   -0.00000        512    1409889
  ssg              :  271353027    0.92863   -0.00000        512  270862912
  open-nodes       :    1408466 167060.00000  209.53917        512    1406014
Root Node          :
  First LP value   : -5.44713804713805e+00
  First LP Iters   :       2193 (12900.00 Iter/sec)
  First LP Time    :       0.17
  Final Dual Bound : -5.37435465768799e+00
  Final Root Iters :       2473
  Root LP Estimate : -2.72569972620455e+00
Solution           :
  Solutions found  :         22 (17 improvements)
  First Solution   : +1.00000000000000e+05   (in run 1, after 0 nodes, 0.04 seconds, depth 0, found by <trivial>)
  Gap First Sol.   :   infinite
  Gap Last Sol.    :      64.93 %
  Primal Bound     : -2.93804713804717e+00   (in run 1, after 438599 nodes, 2359.89 seconds, depth 81, found by <linesearchdiving>)
  Dual Bound       : -4.81178498927633e+00
  Gap              :      63.77 %
Integrals          :      Total       Avg%
  primal-dual      :  144889.71      40.25
  primal-ref       :          -          - (not evaluated)
  dual-ref         :          -          - (not evaluated)
